sat
(model 
  (define-fun i1 () (_ BitVec 8)
    #x00)
  (define-fun i2 () (_ BitVec 8)
    #x01)
  (define-fun f1 ((x!0 (_ BitVec 8)) (x!1 (_ BitVec 8))) (_ BitVec 8)
    x!0)
  (define-fun sub ((x!0 (_ BitVec 8)) (x!1 (_ BitVec 8))) (_ BitVec 8)
    x!1)
)
